(set-info :Origin "This instance was generated by: BanditFuzz-- an RL fuzzer for SMT solvers" )
(set-info :Author "Joe Scott, Fed Mora, Vijay Ganesh" )
(set-info :Contact "Joe Scott, joseph.scott@uwaterloo.ca")
(set-logic QF_BV)
(declare-const bool_0 Bool)
(declare-const bool_1 Bool)
(declare-const bool_2 Bool)
(declare-const bool_3 Bool)
(declare-const bool_4 Bool)
(declare-const bv_0 (_ BitVec 32))
(declare-const bv_1 (_ BitVec 32))
(declare-const bv_2 (_ BitVec 32))
(declare-const bv_3 (_ BitVec 32))
(declare-const bv_4 (_ BitVec 32))
(assert (bvugt (bvand (bvadd bv_1 bv_2) (bvlshr bv_2 #x491e6129 )) (bvxnor (bvand #xdae0c313  #x7fa7055f ) (bvlshr #xf3d722d9  #xf5e8df60 ))))
(assert (bvult (bvsmod (bvmul #x78d18927  bv_4) (bvsub bv_1 #x194efa76 )) (bvlshr (bvsmod bv_4 bv_0) (bvurem #x73930de3  #xb6098f0f ))))
(assert (bvsle (bvudiv (bvshl bv_3 bv_1) (bvnand #x44d786c7  bv_2)) (bvand (bvsmod #xee628e91  #x800020ab ) (bvnand bv_2 #x263fa63e ))))
(assert (not (bvult (bvxnor #x84952291  bv_4) (bvurem bv_4 bv_0))))
(assert (xor (bvuge (bvsub #xe118f5a2  #x0835958c ) (bvudiv #xc4942e91  bv_0)) (bvuge (bvsub bv_0 #xc1b31d0f ) (bvashr bv_4 #x28da2e25 ))))
(check-sat)
(exit)
